36 36
9 7
2 4
10 6
9 7
4 10
8 6
9 6
6 6
1 8
5 1
2 7
4 5
9 9
2 6
7 3
4 1
1 8
7 10
9 10
6 2
9 2
7 6
9 10
6 3
9 8
9 10
2 9
8 2
6 7
4 9
2 1
8 2
1 6
6 7
10 10
2 8
14 13 93
17 13 63
10 17 70
17 20 81
18 19 64
19 15 94
12 11 54
20 12 82
12 14 60
12 16 62
18 17 90
19 11 91
14 17 90
14 11 87
17 18 57
15 20 76
10 13 59
18 13 83
11 11 51
15 18 78
19 13 82
20 13 93
14 15 52
11 20 96
13 17 88
12 15 100
16 15 50
11 20 66
15 16 96
10 18 75
15 11 91
12 10 52
10 16 99
11 13 78
20 20 93
10 12 99
